\* Source Pyomo model name=unknown *\

min 
obj:
+2 x_pq(10212000_10212000)
+40 x_pq(10212000_10413000)
+2 x_pq(10212000_16052000)
+30 x_pq(10212000_16057000)
+2 x_pq(10212000_16879000)
+30 x_pq(10212000_19696000)
+40 x_pq(10212000_27706000)
+2 x_pq(10212000_40159000)
+30 x_pq(10212000_40161000)
+40 x_pq(10212000_40668000)
+30 x_pq(10212000_4398000)
+40 x_pq(10212000_45798000)
+10 x_pq(10413000_10212000)
+2 x_pq(10413000_10413000)
+10 x_pq(10413000_16052000)
+34 x_pq(10413000_16057000)
+10 x_pq(10413000_16879000)
+34 x_pq(10413000_19696000)
+2 x_pq(10413000_27706000)
+10 x_pq(10413000_40159000)
+34 x_pq(10413000_40161000)
+2 x_pq(10413000_40668000)
+34 x_pq(10413000_4398000)
+6 x_pq(10413000_45798000)
+2 x_pq(16052000_10212000)
+40 x_pq(16052000_10413000)
+2 x_pq(16052000_16052000)
+30 x_pq(16052000_16057000)
+2 x_pq(16052000_16879000)
+30 x_pq(16052000_19696000)
+40 x_pq(16052000_27706000)
+2 x_pq(16052000_40159000)
+30 x_pq(16052000_40161000)
+40 x_pq(16052000_40668000)
+30 x_pq(16052000_4398000)
+40 x_pq(16052000_45798000)
+30 x_pq(16057000_10212000)
+30 x_pq(16057000_10413000)
+30 x_pq(16057000_16052000)
+2 x_pq(16057000_16057000)
+30 x_pq(16057000_16879000)
+2 x_pq(16057000_19696000)
+30 x_pq(16057000_27706000)
+30 x_pq(16057000_40159000)
+2 x_pq(16057000_40161000)
+30 x_pq(16057000_40668000)
+2 x_pq(16057000_4398000)
+34 x_pq(16057000_45798000)
+2 x_pq(16879000_10212000)
+40 x_pq(16879000_10413000)
+2 x_pq(16879000_16052000)
+30 x_pq(16879000_16057000)
+2 x_pq(16879000_16879000)
+30 x_pq(16879000_19696000)
+40 x_pq(16879000_27706000)
+2 x_pq(16879000_40159000)
+30 x_pq(16879000_40161000)
+40 x_pq(16879000_40668000)
+30 x_pq(16879000_4398000)
+40 x_pq(16879000_45798000)
+30 x_pq(19696000_10212000)
+30 x_pq(19696000_10413000)
+30 x_pq(19696000_16052000)
+2 x_pq(19696000_16057000)
+30 x_pq(19696000_16879000)
+2 x_pq(19696000_19696000)
+30 x_pq(19696000_27706000)
+30 x_pq(19696000_40159000)
+2 x_pq(19696000_40161000)
+30 x_pq(19696000_40668000)
+2 x_pq(19696000_4398000)
+34 x_pq(19696000_45798000)
+10 x_pq(27706000_10212000)
+2 x_pq(27706000_10413000)
+10 x_pq(27706000_16052000)
+34 x_pq(27706000_16057000)
+10 x_pq(27706000_16879000)
+34 x_pq(27706000_19696000)
+2 x_pq(27706000_27706000)
+10 x_pq(27706000_40159000)
+34 x_pq(27706000_40161000)
+2 x_pq(27706000_40668000)
+34 x_pq(27706000_4398000)
+6 x_pq(27706000_45798000)
+2 x_pq(40159000_10212000)
+40 x_pq(40159000_10413000)
+2 x_pq(40159000_16052000)
+30 x_pq(40159000_16057000)
+2 x_pq(40159000_16879000)
+30 x_pq(40159000_19696000)
+40 x_pq(40159000_27706000)
+2 x_pq(40159000_40159000)
+30 x_pq(40159000_40161000)
+40 x_pq(40159000_40668000)
+30 x_pq(40159000_4398000)
+40 x_pq(40159000_45798000)
+30 x_pq(40161000_10212000)
+30 x_pq(40161000_10413000)
+30 x_pq(40161000_16052000)
+2 x_pq(40161000_16057000)
+30 x_pq(40161000_16879000)
+2 x_pq(40161000_19696000)
+30 x_pq(40161000_27706000)
+30 x_pq(40161000_40159000)
+2 x_pq(40161000_40161000)
+30 x_pq(40161000_40668000)
+2 x_pq(40161000_4398000)
+34 x_pq(40161000_45798000)
+10 x_pq(40668000_10212000)
+2 x_pq(40668000_10413000)
+10 x_pq(40668000_16052000)
+34 x_pq(40668000_16057000)
+10 x_pq(40668000_16879000)
+34 x_pq(40668000_19696000)
+2 x_pq(40668000_27706000)
+10 x_pq(40668000_40159000)
+34 x_pq(40668000_40161000)
+2 x_pq(40668000_40668000)
+34 x_pq(40668000_4398000)
+6 x_pq(40668000_45798000)
+30 x_pq(4398000_10212000)
+30 x_pq(4398000_10413000)
+30 x_pq(4398000_16052000)
+2 x_pq(4398000_16057000)
+30 x_pq(4398000_16879000)
+2 x_pq(4398000_19696000)
+30 x_pq(4398000_27706000)
+30 x_pq(4398000_40159000)
+2 x_pq(4398000_40161000)
+30 x_pq(4398000_40668000)
+2 x_pq(4398000_4398000)
+34 x_pq(4398000_45798000)
+40 x_pq(45798000_10212000)
+36 x_pq(45798000_10413000)
+40 x_pq(45798000_16052000)
+34 x_pq(45798000_16057000)
+40 x_pq(45798000_16879000)
+34 x_pq(45798000_19696000)
+36 x_pq(45798000_27706000)
+40 x_pq(45798000_40159000)
+34 x_pq(45798000_40161000)
+36 x_pq(45798000_40668000)
+34 x_pq(45798000_4398000)

s.t.

c_e_c_1(4398000)_:
+1 x_pq(10212000_4398000)
+1 x_pq(10413000_4398000)
+1 x_pq(16052000_4398000)
+1 x_pq(16057000_4398000)
+1 x_pq(16879000_4398000)
+1 x_pq(19696000_4398000)
+1 x_pq(27706000_4398000)
+1 x_pq(40159000_4398000)
+1 x_pq(40161000_4398000)
+1 x_pq(40668000_4398000)
+1 x_pq(4398000_4398000)
+1 x_pq(45798000_4398000)
= 1

c_e_c_1(10212000)_:
+1 x_pq(10212000_10212000)
+1 x_pq(10413000_10212000)
+1 x_pq(16052000_10212000)
+1 x_pq(16057000_10212000)
+1 x_pq(16879000_10212000)
+1 x_pq(19696000_10212000)
+1 x_pq(27706000_10212000)
+1 x_pq(40159000_10212000)
+1 x_pq(40161000_10212000)
+1 x_pq(40668000_10212000)
+1 x_pq(4398000_10212000)
+1 x_pq(45798000_10212000)
= 1

c_e_c_1(10413000)_:
+1 x_pq(10212000_10413000)
+1 x_pq(10413000_10413000)
+1 x_pq(16052000_10413000)
+1 x_pq(16057000_10413000)
+1 x_pq(16879000_10413000)
+1 x_pq(19696000_10413000)
+1 x_pq(27706000_10413000)
+1 x_pq(40159000_10413000)
+1 x_pq(40161000_10413000)
+1 x_pq(40668000_10413000)
+1 x_pq(4398000_10413000)
+1 x_pq(45798000_10413000)
= 1

c_e_c_1(16052000)_:
+1 x_pq(10212000_16052000)
+1 x_pq(10413000_16052000)
+1 x_pq(16052000_16052000)
+1 x_pq(16057000_16052000)
+1 x_pq(16879000_16052000)
+1 x_pq(19696000_16052000)
+1 x_pq(27706000_16052000)
+1 x_pq(40159000_16052000)
+1 x_pq(40161000_16052000)
+1 x_pq(40668000_16052000)
+1 x_pq(4398000_16052000)
+1 x_pq(45798000_16052000)
= 1

c_e_c_1(16057000)_:
+1 x_pq(10212000_16057000)
+1 x_pq(10413000_16057000)
+1 x_pq(16052000_16057000)
+1 x_pq(16057000_16057000)
+1 x_pq(16879000_16057000)
+1 x_pq(19696000_16057000)
+1 x_pq(27706000_16057000)
+1 x_pq(40159000_16057000)
+1 x_pq(40161000_16057000)
+1 x_pq(40668000_16057000)
+1 x_pq(4398000_16057000)
+1 x_pq(45798000_16057000)
= 1

c_e_c_1(16879000)_:
+1 x_pq(10212000_16879000)
+1 x_pq(10413000_16879000)
+1 x_pq(16052000_16879000)
+1 x_pq(16057000_16879000)
+1 x_pq(16879000_16879000)
+1 x_pq(19696000_16879000)
+1 x_pq(27706000_16879000)
+1 x_pq(40159000_16879000)
+1 x_pq(40161000_16879000)
+1 x_pq(40668000_16879000)
+1 x_pq(4398000_16879000)
+1 x_pq(45798000_16879000)
= 1

c_e_c_1(19696000)_:
+1 x_pq(10212000_19696000)
+1 x_pq(10413000_19696000)
+1 x_pq(16052000_19696000)
+1 x_pq(16057000_19696000)
+1 x_pq(16879000_19696000)
+1 x_pq(19696000_19696000)
+1 x_pq(27706000_19696000)
+1 x_pq(40159000_19696000)
+1 x_pq(40161000_19696000)
+1 x_pq(40668000_19696000)
+1 x_pq(4398000_19696000)
+1 x_pq(45798000_19696000)
= 1

c_e_c_1(27706000)_:
+1 x_pq(10212000_27706000)
+1 x_pq(10413000_27706000)
+1 x_pq(16052000_27706000)
+1 x_pq(16057000_27706000)
+1 x_pq(16879000_27706000)
+1 x_pq(19696000_27706000)
+1 x_pq(27706000_27706000)
+1 x_pq(40159000_27706000)
+1 x_pq(40161000_27706000)
+1 x_pq(40668000_27706000)
+1 x_pq(4398000_27706000)
+1 x_pq(45798000_27706000)
= 1

c_e_c_1(40159000)_:
+1 x_pq(10212000_40159000)
+1 x_pq(10413000_40159000)
+1 x_pq(16052000_40159000)
+1 x_pq(16057000_40159000)
+1 x_pq(16879000_40159000)
+1 x_pq(19696000_40159000)
+1 x_pq(27706000_40159000)
+1 x_pq(40159000_40159000)
+1 x_pq(40161000_40159000)
+1 x_pq(40668000_40159000)
+1 x_pq(4398000_40159000)
+1 x_pq(45798000_40159000)
= 1

c_e_c_1(40161000)_:
+1 x_pq(10212000_40161000)
+1 x_pq(10413000_40161000)
+1 x_pq(16052000_40161000)
+1 x_pq(16057000_40161000)
+1 x_pq(16879000_40161000)
+1 x_pq(19696000_40161000)
+1 x_pq(27706000_40161000)
+1 x_pq(40159000_40161000)
+1 x_pq(40161000_40161000)
+1 x_pq(40668000_40161000)
+1 x_pq(4398000_40161000)
+1 x_pq(45798000_40161000)
= 1

c_e_c_1(40668000)_:
+1 x_pq(10212000_40668000)
+1 x_pq(10413000_40668000)
+1 x_pq(16052000_40668000)
+1 x_pq(16057000_40668000)
+1 x_pq(16879000_40668000)
+1 x_pq(19696000_40668000)
+1 x_pq(27706000_40668000)
+1 x_pq(40159000_40668000)
+1 x_pq(40161000_40668000)
+1 x_pq(40668000_40668000)
+1 x_pq(4398000_40668000)
+1 x_pq(45798000_40668000)
= 1

c_e_c_1(45798000)_:
+1 x_pq(10212000_45798000)
+1 x_pq(10413000_45798000)
+1 x_pq(16052000_45798000)
+1 x_pq(16057000_45798000)
+1 x_pq(16879000_45798000)
+1 x_pq(19696000_45798000)
+1 x_pq(27706000_45798000)
+1 x_pq(40159000_45798000)
+1 x_pq(40161000_45798000)
+1 x_pq(40668000_45798000)
+1 x_pq(4398000_45798000)
+1 x_pq(45798000_45798000)
= 1

c_e_c_2(4398000)_:
+1 x_pq(4398000_10212000)
+1 x_pq(4398000_10413000)
+1 x_pq(4398000_16052000)
+1 x_pq(4398000_16057000)
+1 x_pq(4398000_16879000)
+1 x_pq(4398000_19696000)
+1 x_pq(4398000_27706000)
+1 x_pq(4398000_40159000)
+1 x_pq(4398000_40161000)
+1 x_pq(4398000_40668000)
+1 x_pq(4398000_4398000)
+1 x_pq(4398000_45798000)
= 1

c_e_c_2(10212000)_:
+1 x_pq(10212000_10212000)
+1 x_pq(10212000_10413000)
+1 x_pq(10212000_16052000)
+1 x_pq(10212000_16057000)
+1 x_pq(10212000_16879000)
+1 x_pq(10212000_19696000)
+1 x_pq(10212000_27706000)
+1 x_pq(10212000_40159000)
+1 x_pq(10212000_40161000)
+1 x_pq(10212000_40668000)
+1 x_pq(10212000_4398000)
+1 x_pq(10212000_45798000)
= 1

c_e_c_2(10413000)_:
+1 x_pq(10413000_10212000)
+1 x_pq(10413000_10413000)
+1 x_pq(10413000_16052000)
+1 x_pq(10413000_16057000)
+1 x_pq(10413000_16879000)
+1 x_pq(10413000_19696000)
+1 x_pq(10413000_27706000)
+1 x_pq(10413000_40159000)
+1 x_pq(10413000_40161000)
+1 x_pq(10413000_40668000)
+1 x_pq(10413000_4398000)
+1 x_pq(10413000_45798000)
= 1

c_e_c_2(16052000)_:
+1 x_pq(16052000_10212000)
+1 x_pq(16052000_10413000)
+1 x_pq(16052000_16052000)
+1 x_pq(16052000_16057000)
+1 x_pq(16052000_16879000)
+1 x_pq(16052000_19696000)
+1 x_pq(16052000_27706000)
+1 x_pq(16052000_40159000)
+1 x_pq(16052000_40161000)
+1 x_pq(16052000_40668000)
+1 x_pq(16052000_4398000)
+1 x_pq(16052000_45798000)
= 1

c_e_c_2(16057000)_:
+1 x_pq(16057000_10212000)
+1 x_pq(16057000_10413000)
+1 x_pq(16057000_16052000)
+1 x_pq(16057000_16057000)
+1 x_pq(16057000_16879000)
+1 x_pq(16057000_19696000)
+1 x_pq(16057000_27706000)
+1 x_pq(16057000_40159000)
+1 x_pq(16057000_40161000)
+1 x_pq(16057000_40668000)
+1 x_pq(16057000_4398000)
+1 x_pq(16057000_45798000)
= 1

c_e_c_2(16879000)_:
+1 x_pq(16879000_10212000)
+1 x_pq(16879000_10413000)
+1 x_pq(16879000_16052000)
+1 x_pq(16879000_16057000)
+1 x_pq(16879000_16879000)
+1 x_pq(16879000_19696000)
+1 x_pq(16879000_27706000)
+1 x_pq(16879000_40159000)
+1 x_pq(16879000_40161000)
+1 x_pq(16879000_40668000)
+1 x_pq(16879000_4398000)
+1 x_pq(16879000_45798000)
= 1

c_e_c_2(19696000)_:
+1 x_pq(19696000_10212000)
+1 x_pq(19696000_10413000)
+1 x_pq(19696000_16052000)
+1 x_pq(19696000_16057000)
+1 x_pq(19696000_16879000)
+1 x_pq(19696000_19696000)
+1 x_pq(19696000_27706000)
+1 x_pq(19696000_40159000)
+1 x_pq(19696000_40161000)
+1 x_pq(19696000_40668000)
+1 x_pq(19696000_4398000)
+1 x_pq(19696000_45798000)
= 1

c_e_c_2(27706000)_:
+1 x_pq(27706000_10212000)
+1 x_pq(27706000_10413000)
+1 x_pq(27706000_16052000)
+1 x_pq(27706000_16057000)
+1 x_pq(27706000_16879000)
+1 x_pq(27706000_19696000)
+1 x_pq(27706000_27706000)
+1 x_pq(27706000_40159000)
+1 x_pq(27706000_40161000)
+1 x_pq(27706000_40668000)
+1 x_pq(27706000_4398000)
+1 x_pq(27706000_45798000)
= 1

c_e_c_2(40159000)_:
+1 x_pq(40159000_10212000)
+1 x_pq(40159000_10413000)
+1 x_pq(40159000_16052000)
+1 x_pq(40159000_16057000)
+1 x_pq(40159000_16879000)
+1 x_pq(40159000_19696000)
+1 x_pq(40159000_27706000)
+1 x_pq(40159000_40159000)
+1 x_pq(40159000_40161000)
+1 x_pq(40159000_40668000)
+1 x_pq(40159000_4398000)
+1 x_pq(40159000_45798000)
= 1

c_e_c_2(40161000)_:
+1 x_pq(40161000_10212000)
+1 x_pq(40161000_10413000)
+1 x_pq(40161000_16052000)
+1 x_pq(40161000_16057000)
+1 x_pq(40161000_16879000)
+1 x_pq(40161000_19696000)
+1 x_pq(40161000_27706000)
+1 x_pq(40161000_40159000)
+1 x_pq(40161000_40161000)
+1 x_pq(40161000_40668000)
+1 x_pq(40161000_4398000)
+1 x_pq(40161000_45798000)
= 1

c_e_c_2(40668000)_:
+1 x_pq(40668000_10212000)
+1 x_pq(40668000_10413000)
+1 x_pq(40668000_16052000)
+1 x_pq(40668000_16057000)
+1 x_pq(40668000_16879000)
+1 x_pq(40668000_19696000)
+1 x_pq(40668000_27706000)
+1 x_pq(40668000_40159000)
+1 x_pq(40668000_40161000)
+1 x_pq(40668000_40668000)
+1 x_pq(40668000_4398000)
+1 x_pq(40668000_45798000)
= 1

c_e_c_2(45798000)_:
+1 x_pq(45798000_10212000)
+1 x_pq(45798000_10413000)
+1 x_pq(45798000_16052000)
+1 x_pq(45798000_16057000)
+1 x_pq(45798000_16879000)
+1 x_pq(45798000_19696000)
+1 x_pq(45798000_27706000)
+1 x_pq(45798000_40159000)
+1 x_pq(45798000_40161000)
+1 x_pq(45798000_40668000)
+1 x_pq(45798000_4398000)
+1 x_pq(45798000_45798000)
= 1

c_u_c(4398000_4398000)_:
+12 x_pq(4398000_4398000)
<= 11

c_u_c(4398000_10212000)_:
-1 u_p(10212000)
+1 u_p(4398000)
+12 x_pq(4398000_10212000)
<= 11

c_u_c(4398000_10413000)_:
-1 u_p(10413000)
+1 u_p(4398000)
+12 x_pq(4398000_10413000)
<= 11

c_u_c(4398000_16052000)_:
-1 u_p(16052000)
+1 u_p(4398000)
+12 x_pq(4398000_16052000)
<= 11

c_u_c(4398000_16057000)_:
-1 u_p(16057000)
+1 u_p(4398000)
+12 x_pq(4398000_16057000)
<= 11

c_u_c(4398000_16879000)_:
-1 u_p(16879000)
+1 u_p(4398000)
+12 x_pq(4398000_16879000)
<= 11

c_u_c(4398000_19696000)_:
-1 u_p(19696000)
+1 u_p(4398000)
+12 x_pq(4398000_19696000)
<= 11

c_u_c(4398000_27706000)_:
-1 u_p(27706000)
+1 u_p(4398000)
+12 x_pq(4398000_27706000)
<= 11

c_u_c(4398000_40159000)_:
-1 u_p(40159000)
+1 u_p(4398000)
+12 x_pq(4398000_40159000)
<= 11

c_u_c(4398000_40161000)_:
-1 u_p(40161000)
+1 u_p(4398000)
+12 x_pq(4398000_40161000)
<= 11

c_u_c(4398000_40668000)_:
-1 u_p(40668000)
+1 u_p(4398000)
+12 x_pq(4398000_40668000)
<= 11

c_u_c(4398000_45798000)_:
+1 u_p(4398000)
-1 u_p(45798000)
+12 x_pq(4398000_45798000)
<= 11

c_u_c(10212000_4398000)_:
+1 u_p(10212000)
-1 u_p(4398000)
+12 x_pq(10212000_4398000)
<= 11

c_u_c(10212000_10212000)_:
+12 x_pq(10212000_10212000)
<= 11

c_u_c(10212000_10413000)_:
+1 u_p(10212000)
-1 u_p(10413000)
+12 x_pq(10212000_10413000)
<= 11

c_u_c(10212000_16052000)_:
+1 u_p(10212000)
-1 u_p(16052000)
+12 x_pq(10212000_16052000)
<= 11

c_u_c(10212000_16057000)_:
+1 u_p(10212000)
-1 u_p(16057000)
+12 x_pq(10212000_16057000)
<= 11

c_u_c(10212000_16879000)_:
+1 u_p(10212000)
-1 u_p(16879000)
+12 x_pq(10212000_16879000)
<= 11

c_u_c(10212000_19696000)_:
+1 u_p(10212000)
-1 u_p(19696000)
+12 x_pq(10212000_19696000)
<= 11

c_u_c(10212000_27706000)_:
+1 u_p(10212000)
-1 u_p(27706000)
+12 x_pq(10212000_27706000)
<= 11

c_u_c(10212000_40159000)_:
+1 u_p(10212000)
-1 u_p(40159000)
+12 x_pq(10212000_40159000)
<= 11

c_u_c(10212000_40161000)_:
+1 u_p(10212000)
-1 u_p(40161000)
+12 x_pq(10212000_40161000)
<= 11

c_u_c(10212000_40668000)_:
+1 u_p(10212000)
-1 u_p(40668000)
+12 x_pq(10212000_40668000)
<= 11

c_u_c(10212000_45798000)_:
+1 u_p(10212000)
-1 u_p(45798000)
+12 x_pq(10212000_45798000)
<= 11

c_u_c(10413000_4398000)_:
+1 u_p(10413000)
-1 u_p(4398000)
+12 x_pq(10413000_4398000)
<= 11

c_u_c(10413000_10212000)_:
-1 u_p(10212000)
+1 u_p(10413000)
+12 x_pq(10413000_10212000)
<= 11

c_u_c(10413000_10413000)_:
+12 x_pq(10413000_10413000)
<= 11

c_u_c(10413000_16052000)_:
+1 u_p(10413000)
-1 u_p(16052000)
+12 x_pq(10413000_16052000)
<= 11

c_u_c(10413000_16057000)_:
+1 u_p(10413000)
-1 u_p(16057000)
+12 x_pq(10413000_16057000)
<= 11

c_u_c(10413000_16879000)_:
+1 u_p(10413000)
-1 u_p(16879000)
+12 x_pq(10413000_16879000)
<= 11

c_u_c(10413000_19696000)_:
+1 u_p(10413000)
-1 u_p(19696000)
+12 x_pq(10413000_19696000)
<= 11

c_u_c(10413000_27706000)_:
+1 u_p(10413000)
-1 u_p(27706000)
+12 x_pq(10413000_27706000)
<= 11

c_u_c(10413000_40159000)_:
+1 u_p(10413000)
-1 u_p(40159000)
+12 x_pq(10413000_40159000)
<= 11

c_u_c(10413000_40161000)_:
+1 u_p(10413000)
-1 u_p(40161000)
+12 x_pq(10413000_40161000)
<= 11

c_u_c(10413000_40668000)_:
+1 u_p(10413000)
-1 u_p(40668000)
+12 x_pq(10413000_40668000)
<= 11

c_u_c(10413000_45798000)_:
+1 u_p(10413000)
-1 u_p(45798000)
+12 x_pq(10413000_45798000)
<= 11

c_u_c(16052000_4398000)_:
+1 u_p(16052000)
-1 u_p(4398000)
+12 x_pq(16052000_4398000)
<= 11

c_u_c(16052000_10212000)_:
-1 u_p(10212000)
+1 u_p(16052000)
+12 x_pq(16052000_10212000)
<= 11

c_u_c(16052000_10413000)_:
-1 u_p(10413000)
+1 u_p(16052000)
+12 x_pq(16052000_10413000)
<= 11

c_u_c(16052000_16052000)_:
+12 x_pq(16052000_16052000)
<= 11

c_u_c(16052000_16057000)_:
+1 u_p(16052000)
-1 u_p(16057000)
+12 x_pq(16052000_16057000)
<= 11

c_u_c(16052000_16879000)_:
+1 u_p(16052000)
-1 u_p(16879000)
+12 x_pq(16052000_16879000)
<= 11

c_u_c(16052000_19696000)_:
+1 u_p(16052000)
-1 u_p(19696000)
+12 x_pq(16052000_19696000)
<= 11

c_u_c(16052000_27706000)_:
+1 u_p(16052000)
-1 u_p(27706000)
+12 x_pq(16052000_27706000)
<= 11

c_u_c(16052000_40159000)_:
+1 u_p(16052000)
-1 u_p(40159000)
+12 x_pq(16052000_40159000)
<= 11

c_u_c(16052000_40161000)_:
+1 u_p(16052000)
-1 u_p(40161000)
+12 x_pq(16052000_40161000)
<= 11

c_u_c(16052000_40668000)_:
+1 u_p(16052000)
-1 u_p(40668000)
+12 x_pq(16052000_40668000)
<= 11

c_u_c(16052000_45798000)_:
+1 u_p(16052000)
-1 u_p(45798000)
+12 x_pq(16052000_45798000)
<= 11

c_u_c(16057000_4398000)_:
+1 u_p(16057000)
-1 u_p(4398000)
+12 x_pq(16057000_4398000)
<= 11

c_u_c(16057000_10212000)_:
-1 u_p(10212000)
+1 u_p(16057000)
+12 x_pq(16057000_10212000)
<= 11

c_u_c(16057000_10413000)_:
-1 u_p(10413000)
+1 u_p(16057000)
+12 x_pq(16057000_10413000)
<= 11

c_u_c(16057000_16052000)_:
-1 u_p(16052000)
+1 u_p(16057000)
+12 x_pq(16057000_16052000)
<= 11

c_u_c(16057000_16057000)_:
+12 x_pq(16057000_16057000)
<= 11

c_u_c(16057000_16879000)_:
+1 u_p(16057000)
-1 u_p(16879000)
+12 x_pq(16057000_16879000)
<= 11

c_u_c(16057000_19696000)_:
+1 u_p(16057000)
-1 u_p(19696000)
+12 x_pq(16057000_19696000)
<= 11

c_u_c(16057000_27706000)_:
+1 u_p(16057000)
-1 u_p(27706000)
+12 x_pq(16057000_27706000)
<= 11

c_u_c(16057000_40159000)_:
+1 u_p(16057000)
-1 u_p(40159000)
+12 x_pq(16057000_40159000)
<= 11

c_u_c(16057000_40161000)_:
+1 u_p(16057000)
-1 u_p(40161000)
+12 x_pq(16057000_40161000)
<= 11

c_u_c(16057000_40668000)_:
+1 u_p(16057000)
-1 u_p(40668000)
+12 x_pq(16057000_40668000)
<= 11

c_u_c(16057000_45798000)_:
+1 u_p(16057000)
-1 u_p(45798000)
+12 x_pq(16057000_45798000)
<= 11

c_u_c(16879000_4398000)_:
+1 u_p(16879000)
-1 u_p(4398000)
+12 x_pq(16879000_4398000)
<= 11

c_u_c(16879000_10212000)_:
-1 u_p(10212000)
+1 u_p(16879000)
+12 x_pq(16879000_10212000)
<= 11

c_u_c(16879000_10413000)_:
-1 u_p(10413000)
+1 u_p(16879000)
+12 x_pq(16879000_10413000)
<= 11

c_u_c(16879000_16052000)_:
-1 u_p(16052000)
+1 u_p(16879000)
+12 x_pq(16879000_16052000)
<= 11

c_u_c(16879000_16057000)_:
-1 u_p(16057000)
+1 u_p(16879000)
+12 x_pq(16879000_16057000)
<= 11

c_u_c(16879000_16879000)_:
+12 x_pq(16879000_16879000)
<= 11

c_u_c(16879000_19696000)_:
+1 u_p(16879000)
-1 u_p(19696000)
+12 x_pq(16879000_19696000)
<= 11

c_u_c(16879000_27706000)_:
+1 u_p(16879000)
-1 u_p(27706000)
+12 x_pq(16879000_27706000)
<= 11

c_u_c(16879000_40159000)_:
+1 u_p(16879000)
-1 u_p(40159000)
+12 x_pq(16879000_40159000)
<= 11

c_u_c(16879000_40161000)_:
+1 u_p(16879000)
-1 u_p(40161000)
+12 x_pq(16879000_40161000)
<= 11

c_u_c(16879000_40668000)_:
+1 u_p(16879000)
-1 u_p(40668000)
+12 x_pq(16879000_40668000)
<= 11

c_u_c(16879000_45798000)_:
+1 u_p(16879000)
-1 u_p(45798000)
+12 x_pq(16879000_45798000)
<= 11

c_u_c(19696000_4398000)_:
+1 u_p(19696000)
-1 u_p(4398000)
+12 x_pq(19696000_4398000)
<= 11

c_u_c(19696000_10212000)_:
-1 u_p(10212000)
+1 u_p(19696000)
+12 x_pq(19696000_10212000)
<= 11

c_u_c(19696000_10413000)_:
-1 u_p(10413000)
+1 u_p(19696000)
+12 x_pq(19696000_10413000)
<= 11

c_u_c(19696000_16052000)_:
-1 u_p(16052000)
+1 u_p(19696000)
+12 x_pq(19696000_16052000)
<= 11

c_u_c(19696000_16057000)_:
-1 u_p(16057000)
+1 u_p(19696000)
+12 x_pq(19696000_16057000)
<= 11

c_u_c(19696000_16879000)_:
-1 u_p(16879000)
+1 u_p(19696000)
+12 x_pq(19696000_16879000)
<= 11

c_u_c(19696000_19696000)_:
+12 x_pq(19696000_19696000)
<= 11

c_u_c(19696000_27706000)_:
+1 u_p(19696000)
-1 u_p(27706000)
+12 x_pq(19696000_27706000)
<= 11

c_u_c(19696000_40159000)_:
+1 u_p(19696000)
-1 u_p(40159000)
+12 x_pq(19696000_40159000)
<= 11

c_u_c(19696000_40161000)_:
+1 u_p(19696000)
-1 u_p(40161000)
+12 x_pq(19696000_40161000)
<= 11

c_u_c(19696000_40668000)_:
+1 u_p(19696000)
-1 u_p(40668000)
+12 x_pq(19696000_40668000)
<= 11

c_u_c(19696000_45798000)_:
+1 u_p(19696000)
-1 u_p(45798000)
+12 x_pq(19696000_45798000)
<= 11

c_u_c(27706000_4398000)_:
+1 u_p(27706000)
-1 u_p(4398000)
+12 x_pq(27706000_4398000)
<= 11

c_u_c(27706000_10212000)_:
-1 u_p(10212000)
+1 u_p(27706000)
+12 x_pq(27706000_10212000)
<= 11

c_u_c(27706000_10413000)_:
-1 u_p(10413000)
+1 u_p(27706000)
+12 x_pq(27706000_10413000)
<= 11

c_u_c(27706000_16052000)_:
-1 u_p(16052000)
+1 u_p(27706000)
+12 x_pq(27706000_16052000)
<= 11

c_u_c(27706000_16057000)_:
-1 u_p(16057000)
+1 u_p(27706000)
+12 x_pq(27706000_16057000)
<= 11

c_u_c(27706000_16879000)_:
-1 u_p(16879000)
+1 u_p(27706000)
+12 x_pq(27706000_16879000)
<= 11

c_u_c(27706000_19696000)_:
-1 u_p(19696000)
+1 u_p(27706000)
+12 x_pq(27706000_19696000)
<= 11

c_u_c(27706000_27706000)_:
+12 x_pq(27706000_27706000)
<= 11

c_u_c(27706000_40159000)_:
+1 u_p(27706000)
-1 u_p(40159000)
+12 x_pq(27706000_40159000)
<= 11

c_u_c(27706000_40161000)_:
+1 u_p(27706000)
-1 u_p(40161000)
+12 x_pq(27706000_40161000)
<= 11

c_u_c(27706000_40668000)_:
+1 u_p(27706000)
-1 u_p(40668000)
+12 x_pq(27706000_40668000)
<= 11

c_u_c(27706000_45798000)_:
+1 u_p(27706000)
-1 u_p(45798000)
+12 x_pq(27706000_45798000)
<= 11

c_u_c(40159000_4398000)_:
+1 u_p(40159000)
-1 u_p(4398000)
+12 x_pq(40159000_4398000)
<= 11

c_u_c(40159000_10212000)_:
-1 u_p(10212000)
+1 u_p(40159000)
+12 x_pq(40159000_10212000)
<= 11

c_u_c(40159000_10413000)_:
-1 u_p(10413000)
+1 u_p(40159000)
+12 x_pq(40159000_10413000)
<= 11

c_u_c(40159000_16052000)_:
-1 u_p(16052000)
+1 u_p(40159000)
+12 x_pq(40159000_16052000)
<= 11

c_u_c(40159000_16057000)_:
-1 u_p(16057000)
+1 u_p(40159000)
+12 x_pq(40159000_16057000)
<= 11

c_u_c(40159000_16879000)_:
-1 u_p(16879000)
+1 u_p(40159000)
+12 x_pq(40159000_16879000)
<= 11

c_u_c(40159000_19696000)_:
-1 u_p(19696000)
+1 u_p(40159000)
+12 x_pq(40159000_19696000)
<= 11

c_u_c(40159000_27706000)_:
-1 u_p(27706000)
+1 u_p(40159000)
+12 x_pq(40159000_27706000)
<= 11

c_u_c(40159000_40159000)_:
+12 x_pq(40159000_40159000)
<= 11

c_u_c(40159000_40161000)_:
+1 u_p(40159000)
-1 u_p(40161000)
+12 x_pq(40159000_40161000)
<= 11

c_u_c(40159000_40668000)_:
+1 u_p(40159000)
-1 u_p(40668000)
+12 x_pq(40159000_40668000)
<= 11

c_u_c(40159000_45798000)_:
+1 u_p(40159000)
-1 u_p(45798000)
+12 x_pq(40159000_45798000)
<= 11

c_u_c(40161000_4398000)_:
+1 u_p(40161000)
-1 u_p(4398000)
+12 x_pq(40161000_4398000)
<= 11

c_u_c(40161000_10212000)_:
-1 u_p(10212000)
+1 u_p(40161000)
+12 x_pq(40161000_10212000)
<= 11

c_u_c(40161000_10413000)_:
-1 u_p(10413000)
+1 u_p(40161000)
+12 x_pq(40161000_10413000)
<= 11

c_u_c(40161000_16052000)_:
-1 u_p(16052000)
+1 u_p(40161000)
+12 x_pq(40161000_16052000)
<= 11

c_u_c(40161000_16057000)_:
-1 u_p(16057000)
+1 u_p(40161000)
+12 x_pq(40161000_16057000)
<= 11

c_u_c(40161000_16879000)_:
-1 u_p(16879000)
+1 u_p(40161000)
+12 x_pq(40161000_16879000)
<= 11

c_u_c(40161000_19696000)_:
-1 u_p(19696000)
+1 u_p(40161000)
+12 x_pq(40161000_19696000)
<= 11

c_u_c(40161000_27706000)_:
-1 u_p(27706000)
+1 u_p(40161000)
+12 x_pq(40161000_27706000)
<= 11

c_u_c(40161000_40159000)_:
-1 u_p(40159000)
+1 u_p(40161000)
+12 x_pq(40161000_40159000)
<= 11

c_u_c(40161000_40161000)_:
+12 x_pq(40161000_40161000)
<= 11

c_u_c(40161000_40668000)_:
+1 u_p(40161000)
-1 u_p(40668000)
+12 x_pq(40161000_40668000)
<= 11

c_u_c(40161000_45798000)_:
+1 u_p(40161000)
-1 u_p(45798000)
+12 x_pq(40161000_45798000)
<= 11

c_u_c(40668000_4398000)_:
+1 u_p(40668000)
-1 u_p(4398000)
+12 x_pq(40668000_4398000)
<= 11

c_u_c(40668000_10212000)_:
-1 u_p(10212000)
+1 u_p(40668000)
+12 x_pq(40668000_10212000)
<= 11

c_u_c(40668000_10413000)_:
-1 u_p(10413000)
+1 u_p(40668000)
+12 x_pq(40668000_10413000)
<= 11

c_u_c(40668000_16052000)_:
-1 u_p(16052000)
+1 u_p(40668000)
+12 x_pq(40668000_16052000)
<= 11

c_u_c(40668000_16057000)_:
-1 u_p(16057000)
+1 u_p(40668000)
+12 x_pq(40668000_16057000)
<= 11

c_u_c(40668000_16879000)_:
-1 u_p(16879000)
+1 u_p(40668000)
+12 x_pq(40668000_16879000)
<= 11

c_u_c(40668000_19696000)_:
-1 u_p(19696000)
+1 u_p(40668000)
+12 x_pq(40668000_19696000)
<= 11

c_u_c(40668000_27706000)_:
-1 u_p(27706000)
+1 u_p(40668000)
+12 x_pq(40668000_27706000)
<= 11

c_u_c(40668000_40159000)_:
-1 u_p(40159000)
+1 u_p(40668000)
+12 x_pq(40668000_40159000)
<= 11

c_u_c(40668000_40161000)_:
-1 u_p(40161000)
+1 u_p(40668000)
+12 x_pq(40668000_40161000)
<= 11

c_u_c(40668000_40668000)_:
+12 x_pq(40668000_40668000)
<= 11

c_u_c(40668000_45798000)_:
+1 u_p(40668000)
-1 u_p(45798000)
+12 x_pq(40668000_45798000)
<= 11

c_u_c(45798000_4398000)_:
-1 u_p(4398000)
+1 u_p(45798000)
+12 x_pq(45798000_4398000)
<= 11

c_u_c(45798000_10212000)_:
-1 u_p(10212000)
+1 u_p(45798000)
+12 x_pq(45798000_10212000)
<= 11

c_u_c(45798000_10413000)_:
-1 u_p(10413000)
+1 u_p(45798000)
+12 x_pq(45798000_10413000)
<= 11

c_u_c(45798000_16052000)_:
-1 u_p(16052000)
+1 u_p(45798000)
+12 x_pq(45798000_16052000)
<= 11

c_u_c(45798000_16057000)_:
-1 u_p(16057000)
+1 u_p(45798000)
+12 x_pq(45798000_16057000)
<= 11

c_u_c(45798000_16879000)_:
-1 u_p(16879000)
+1 u_p(45798000)
+12 x_pq(45798000_16879000)
<= 11

c_u_c(45798000_19696000)_:
-1 u_p(19696000)
+1 u_p(45798000)
+12 x_pq(45798000_19696000)
<= 11

c_u_c(45798000_27706000)_:
-1 u_p(27706000)
+1 u_p(45798000)
+12 x_pq(45798000_27706000)
<= 11

c_u_c(45798000_40159000)_:
-1 u_p(40159000)
+1 u_p(45798000)
+12 x_pq(45798000_40159000)
<= 11

c_u_c(45798000_40161000)_:
-1 u_p(40161000)
+1 u_p(45798000)
+12 x_pq(45798000_40161000)
<= 11

c_u_c(45798000_40668000)_:
-1 u_p(40668000)
+1 u_p(45798000)
+12 x_pq(45798000_40668000)
<= 11

c_u_c(45798000_45798000)_:
+12 x_pq(45798000_45798000)
<= 11

c_e_ONE_VAR_CONSTANT: 
ONE_VAR_CONSTANT = 1.0

bounds
   0 <= x_pq(4398000_4398000) <= 1
   0 <= x_pq(4398000_10212000) <= 1
   0 <= x_pq(4398000_10413000) <= 1
   0 <= x_pq(4398000_16052000) <= 1
   0 <= x_pq(4398000_16057000) <= 1
   0 <= x_pq(4398000_16879000) <= 1
   0 <= x_pq(4398000_19696000) <= 1
   0 <= x_pq(4398000_27706000) <= 1
   0 <= x_pq(4398000_40159000) <= 1
   0 <= x_pq(4398000_40161000) <= 1
   0 <= x_pq(4398000_40668000) <= 1
   0 <= x_pq(4398000_45798000) <= 1
   0 <= x_pq(10212000_4398000) <= 1
   0 <= x_pq(10212000_10212000) <= 1
   0 <= x_pq(10212000_10413000) <= 1
   0 <= x_pq(10212000_16052000) <= 1
   0 <= x_pq(10212000_16057000) <= 1
   0 <= x_pq(10212000_16879000) <= 1
   0 <= x_pq(10212000_19696000) <= 1
   0 <= x_pq(10212000_27706000) <= 1
   0 <= x_pq(10212000_40159000) <= 1
   0 <= x_pq(10212000_40161000) <= 1
   0 <= x_pq(10212000_40668000) <= 1
   0 <= x_pq(10212000_45798000) <= 1
   0 <= x_pq(10413000_4398000) <= 1
   0 <= x_pq(10413000_10212000) <= 1
   0 <= x_pq(10413000_10413000) <= 1
   0 <= x_pq(10413000_16052000) <= 1
   0 <= x_pq(10413000_16057000) <= 1
   0 <= x_pq(10413000_16879000) <= 1
   0 <= x_pq(10413000_19696000) <= 1
   0 <= x_pq(10413000_27706000) <= 1
   0 <= x_pq(10413000_40159000) <= 1
   0 <= x_pq(10413000_40161000) <= 1
   0 <= x_pq(10413000_40668000) <= 1
   0 <= x_pq(10413000_45798000) <= 1
   0 <= x_pq(16052000_4398000) <= 1
   0 <= x_pq(16052000_10212000) <= 1
   0 <= x_pq(16052000_10413000) <= 1
   0 <= x_pq(16052000_16052000) <= 1
   0 <= x_pq(16052000_16057000) <= 1
   0 <= x_pq(16052000_16879000) <= 1
   0 <= x_pq(16052000_19696000) <= 1
   0 <= x_pq(16052000_27706000) <= 1
   0 <= x_pq(16052000_40159000) <= 1
   0 <= x_pq(16052000_40161000) <= 1
   0 <= x_pq(16052000_40668000) <= 1
   0 <= x_pq(16052000_45798000) <= 1
   0 <= x_pq(16057000_4398000) <= 1
   0 <= x_pq(16057000_10212000) <= 1
   0 <= x_pq(16057000_10413000) <= 1
   0 <= x_pq(16057000_16052000) <= 1
   0 <= x_pq(16057000_16057000) <= 1
   0 <= x_pq(16057000_16879000) <= 1
   0 <= x_pq(16057000_19696000) <= 1
   0 <= x_pq(16057000_27706000) <= 1
   0 <= x_pq(16057000_40159000) <= 1
   0 <= x_pq(16057000_40161000) <= 1
   0 <= x_pq(16057000_40668000) <= 1
   0 <= x_pq(16057000_45798000) <= 1
   0 <= x_pq(16879000_4398000) <= 1
   0 <= x_pq(16879000_10212000) <= 1
   0 <= x_pq(16879000_10413000) <= 1
   0 <= x_pq(16879000_16052000) <= 1
   0 <= x_pq(16879000_16057000) <= 1
   0 <= x_pq(16879000_16879000) <= 1
   0 <= x_pq(16879000_19696000) <= 1
   0 <= x_pq(16879000_27706000) <= 1
   0 <= x_pq(16879000_40159000) <= 1
   0 <= x_pq(16879000_40161000) <= 1
   0 <= x_pq(16879000_40668000) <= 1
   0 <= x_pq(16879000_45798000) <= 1
   0 <= x_pq(19696000_4398000) <= 1
   0 <= x_pq(19696000_10212000) <= 1
   0 <= x_pq(19696000_10413000) <= 1
   0 <= x_pq(19696000_16052000) <= 1
   0 <= x_pq(19696000_16057000) <= 1
   0 <= x_pq(19696000_16879000) <= 1
   0 <= x_pq(19696000_19696000) <= 1
   0 <= x_pq(19696000_27706000) <= 1
   0 <= x_pq(19696000_40159000) <= 1
   0 <= x_pq(19696000_40161000) <= 1
   0 <= x_pq(19696000_40668000) <= 1
   0 <= x_pq(19696000_45798000) <= 1
   0 <= x_pq(27706000_4398000) <= 1
   0 <= x_pq(27706000_10212000) <= 1
   0 <= x_pq(27706000_10413000) <= 1
   0 <= x_pq(27706000_16052000) <= 1
   0 <= x_pq(27706000_16057000) <= 1
   0 <= x_pq(27706000_16879000) <= 1
   0 <= x_pq(27706000_19696000) <= 1
   0 <= x_pq(27706000_27706000) <= 1
   0 <= x_pq(27706000_40159000) <= 1
   0 <= x_pq(27706000_40161000) <= 1
   0 <= x_pq(27706000_40668000) <= 1
   0 <= x_pq(27706000_45798000) <= 1
   0 <= x_pq(40159000_4398000) <= 1
   0 <= x_pq(40159000_10212000) <= 1
   0 <= x_pq(40159000_10413000) <= 1
   0 <= x_pq(40159000_16052000) <= 1
   0 <= x_pq(40159000_16057000) <= 1
   0 <= x_pq(40159000_16879000) <= 1
   0 <= x_pq(40159000_19696000) <= 1
   0 <= x_pq(40159000_27706000) <= 1
   0 <= x_pq(40159000_40159000) <= 1
   0 <= x_pq(40159000_40161000) <= 1
   0 <= x_pq(40159000_40668000) <= 1
   0 <= x_pq(40159000_45798000) <= 1
   0 <= x_pq(40161000_4398000) <= 1
   0 <= x_pq(40161000_10212000) <= 1
   0 <= x_pq(40161000_10413000) <= 1
   0 <= x_pq(40161000_16052000) <= 1
   0 <= x_pq(40161000_16057000) <= 1
   0 <= x_pq(40161000_16879000) <= 1
   0 <= x_pq(40161000_19696000) <= 1
   0 <= x_pq(40161000_27706000) <= 1
   0 <= x_pq(40161000_40159000) <= 1
   0 <= x_pq(40161000_40161000) <= 1
   0 <= x_pq(40161000_40668000) <= 1
   0 <= x_pq(40161000_45798000) <= 1
   0 <= x_pq(40668000_4398000) <= 1
   0 <= x_pq(40668000_10212000) <= 1
   0 <= x_pq(40668000_10413000) <= 1
   0 <= x_pq(40668000_16052000) <= 1
   0 <= x_pq(40668000_16057000) <= 1
   0 <= x_pq(40668000_16879000) <= 1
   0 <= x_pq(40668000_19696000) <= 1
   0 <= x_pq(40668000_27706000) <= 1
   0 <= x_pq(40668000_40159000) <= 1
   0 <= x_pq(40668000_40161000) <= 1
   0 <= x_pq(40668000_40668000) <= 1
   0 <= x_pq(40668000_45798000) <= 1
   0 <= x_pq(45798000_4398000) <= 1
   0 <= x_pq(45798000_10212000) <= 1
   0 <= x_pq(45798000_10413000) <= 1
   0 <= x_pq(45798000_16052000) <= 1
   0 <= x_pq(45798000_16057000) <= 1
   0 <= x_pq(45798000_16879000) <= 1
   0 <= x_pq(45798000_19696000) <= 1
   0 <= x_pq(45798000_27706000) <= 1
   0 <= x_pq(45798000_40159000) <= 1
   0 <= x_pq(45798000_40161000) <= 1
   0 <= x_pq(45798000_40668000) <= 1
   0 <= x_pq(45798000_45798000) <= 1
    -inf <= u_p(4398000) <= +inf
    -inf <= u_p(10212000) <= +inf
    -inf <= u_p(10413000) <= +inf
    -inf <= u_p(16052000) <= +inf
    -inf <= u_p(16057000) <= +inf
    -inf <= u_p(16879000) <= +inf
    -inf <= u_p(19696000) <= +inf
    -inf <= u_p(27706000) <= +inf
    -inf <= u_p(40159000) <= +inf
    -inf <= u_p(40161000) <= +inf
    -inf <= u_p(40668000) <= +inf
    -inf <= u_p(45798000) <= +inf
general
  u_p(4398000)
  u_p(10212000)
  u_p(10413000)
  u_p(16052000)
  u_p(16057000)
  u_p(16879000)
  u_p(19696000)
  u_p(27706000)
  u_p(40159000)
  u_p(40161000)
  u_p(40668000)
  u_p(45798000)
binary
  x_pq(4398000_4398000)
  x_pq(4398000_10212000)
  x_pq(4398000_10413000)
  x_pq(4398000_16052000)
  x_pq(4398000_16057000)
  x_pq(4398000_16879000)
  x_pq(4398000_19696000)
  x_pq(4398000_27706000)
  x_pq(4398000_40159000)
  x_pq(4398000_40161000)
  x_pq(4398000_40668000)
  x_pq(4398000_45798000)
  x_pq(10212000_4398000)
  x_pq(10212000_10212000)
  x_pq(10212000_10413000)
  x_pq(10212000_16052000)
  x_pq(10212000_16057000)
  x_pq(10212000_16879000)
  x_pq(10212000_19696000)
  x_pq(10212000_27706000)
  x_pq(10212000_40159000)
  x_pq(10212000_40161000)
  x_pq(10212000_40668000)
  x_pq(10212000_45798000)
  x_pq(10413000_4398000)
  x_pq(10413000_10212000)
  x_pq(10413000_10413000)
  x_pq(10413000_16052000)
  x_pq(10413000_16057000)
  x_pq(10413000_16879000)
  x_pq(10413000_19696000)
  x_pq(10413000_27706000)
  x_pq(10413000_40159000)
  x_pq(10413000_40161000)
  x_pq(10413000_40668000)
  x_pq(10413000_45798000)
  x_pq(16052000_4398000)
  x_pq(16052000_10212000)
  x_pq(16052000_10413000)
  x_pq(16052000_16052000)
  x_pq(16052000_16057000)
  x_pq(16052000_16879000)
  x_pq(16052000_19696000)
  x_pq(16052000_27706000)
  x_pq(16052000_40159000)
  x_pq(16052000_40161000)
  x_pq(16052000_40668000)
  x_pq(16052000_45798000)
  x_pq(16057000_4398000)
  x_pq(16057000_10212000)
  x_pq(16057000_10413000)
  x_pq(16057000_16052000)
  x_pq(16057000_16057000)
  x_pq(16057000_16879000)
  x_pq(16057000_19696000)
  x_pq(16057000_27706000)
  x_pq(16057000_40159000)
  x_pq(16057000_40161000)
  x_pq(16057000_40668000)
  x_pq(16057000_45798000)
  x_pq(16879000_4398000)
  x_pq(16879000_10212000)
  x_pq(16879000_10413000)
  x_pq(16879000_16052000)
  x_pq(16879000_16057000)
  x_pq(16879000_16879000)
  x_pq(16879000_19696000)
  x_pq(16879000_27706000)
  x_pq(16879000_40159000)
  x_pq(16879000_40161000)
  x_pq(16879000_40668000)
  x_pq(16879000_45798000)
  x_pq(19696000_4398000)
  x_pq(19696000_10212000)
  x_pq(19696000_10413000)
  x_pq(19696000_16052000)
  x_pq(19696000_16057000)
  x_pq(19696000_16879000)
  x_pq(19696000_19696000)
  x_pq(19696000_27706000)
  x_pq(19696000_40159000)
  x_pq(19696000_40161000)
  x_pq(19696000_40668000)
  x_pq(19696000_45798000)
  x_pq(27706000_4398000)
  x_pq(27706000_10212000)
  x_pq(27706000_10413000)
  x_pq(27706000_16052000)
  x_pq(27706000_16057000)
  x_pq(27706000_16879000)
  x_pq(27706000_19696000)
  x_pq(27706000_27706000)
  x_pq(27706000_40159000)
  x_pq(27706000_40161000)
  x_pq(27706000_40668000)
  x_pq(27706000_45798000)
  x_pq(40159000_4398000)
  x_pq(40159000_10212000)
  x_pq(40159000_10413000)
  x_pq(40159000_16052000)
  x_pq(40159000_16057000)
  x_pq(40159000_16879000)
  x_pq(40159000_19696000)
  x_pq(40159000_27706000)
  x_pq(40159000_40159000)
  x_pq(40159000_40161000)
  x_pq(40159000_40668000)
  x_pq(40159000_45798000)
  x_pq(40161000_4398000)
  x_pq(40161000_10212000)
  x_pq(40161000_10413000)
  x_pq(40161000_16052000)
  x_pq(40161000_16057000)
  x_pq(40161000_16879000)
  x_pq(40161000_19696000)
  x_pq(40161000_27706000)
  x_pq(40161000_40159000)
  x_pq(40161000_40161000)
  x_pq(40161000_40668000)
  x_pq(40161000_45798000)
  x_pq(40668000_4398000)
  x_pq(40668000_10212000)
  x_pq(40668000_10413000)
  x_pq(40668000_16052000)
  x_pq(40668000_16057000)
  x_pq(40668000_16879000)
  x_pq(40668000_19696000)
  x_pq(40668000_27706000)
  x_pq(40668000_40159000)
  x_pq(40668000_40161000)
  x_pq(40668000_40668000)
  x_pq(40668000_45798000)
  x_pq(45798000_4398000)
  x_pq(45798000_10212000)
  x_pq(45798000_10413000)
  x_pq(45798000_16052000)
  x_pq(45798000_16057000)
  x_pq(45798000_16879000)
  x_pq(45798000_19696000)
  x_pq(45798000_27706000)
  x_pq(45798000_40159000)
  x_pq(45798000_40161000)
  x_pq(45798000_40668000)
  x_pq(45798000_45798000)
end
